c 
c G(k,n,p) graph
c graph gen seed     : 23100
c number of vertices : 30
c max number of edges: 500
c number of classes  : 2
c edge density       : 0.400000
c edge probability   : 0.800000
c data structure     : sparse
c
c           Graph Stats
c number of vertices  : 30
c nonisolated vertices: 30
c number of edges     : 162
c edge density        : 0.372414
c max degree          : 18
c avg degree          : 10.80
c min degree          : 5
p col 30 162
e 1 20
e 1 17
e 1 14
e 1 12
e 1 8
e 1 7
e 1 6
e 1 4
e 2 25
e 2 20
e 2 17
e 2 14
e 2 12
e 2 11
e 2 8
e 2 7
e 2 6
e 2 4
e 3 25
e 3 17
e 3 14
e 3 12
e 3 11
e 3 8
e 3 7
e 3 6
e 3 4
e 4 29
e 4 28
e 4 27
e 4 23
e 4 22
e 4 21
e 4 19
e 4 16
e 4 15
e 4 13
e 4 9
e 4 5
e 5 25
e 5 20
e 5 17
e 5 14
e 5 12
e 5 11
e 5 8
e 5 7
e 5 6
e 6 30
e 6 29
e 6 28
e 6 27
e 6 26
e 6 24
e 6 23
e 6 22
e 6 21
e 6 19
e 6 15
e 6 13
e 6 10
e 6 9
e 7 29
e 7 28
e 7 27
e 7 26
e 7 24
e 7 23
e 7 21
e 7 16
e 7 15
e 7 13
e 7 9
e 8 30
e 8 29
e 8 28
e 8 27
e 8 26
e 8 23
e 8 22
e 8 21
e 8 19
e 8 18
e 8 15
e 9 20
e 9 17
e 9 14
e 9 12
e 9 11
e 10 20
e 10 17
e 10 12
e 10 11
e 11 30
e 11 29
e 11 28
e 11 27
e 11 26
e 11 24
e 11 23
e 11 21
e 11 19
e 11 18
e 11 16
e 11 15
e 11 13
e 12 29
e 12 28
e 12 27
e 12 26
e 12 23
e 12 22
e 12 21
e 12 19
e 12 18
e 12 16
e 12 15
e 12 13
e 13 25
e 13 20
e 13 17
e 14 30
e 14 29
e 14 28
e 14 24
e 14 23
e 14 22
e 14 21
e 14 19
e 14 18
e 14 16
e 14 15
e 15 25
e 15 20
e 15 17
e 16 25
e 16 20
e 16 17
e 17 29
e 17 28
e 17 27
e 17 24
e 17 23
e 17 22
e 17 21
e 17 18
e 18 25
e 18 20
e 19 25
e 19 20
e 20 30
e 20 29
e 20 28
e 20 27
e 20 24
e 20 23
e 20 21
e 21 25
e 24 25
e 25 30
e 25 28
e 25 27
